(set-logic ALL)
(declare-const k Int)
(declare-fun s () (_ BitVec k))
(declare-fun t () (_ BitVec k))
(assert (not (distinct (distinct s (bvudiv t (bvshl t t))) (distinct s (bvudiv s (bvshl t t))))))
(check-sat)
